db/data/137432931130243682798127137324345713.z3.out
sat
-------------------
3.307534958
